ID_groupA
21733
25737
25737
2168
2168
68569
21733
21733
21733
21733
2168
2168
21733
21733
25737
2168
2168
2168
2168
2168
2168
2168
2168
2168
2168
2168
2168
25737
25737
25737
2168
2168
2168
25737
25737
25737
25737
25737
25737
90721
2168
2168
2168
2168
25737
25737
2168
2168
2168
25737
90721
90721
90721
90721
2168
2168
90721
90721
2168
2168
68569
68569
90721
2168
2168
90721
90721
2168
2168
68569
68569
68569
68569
2168
68569
68569
2168
68569
2168
2168
2168
2168
68569
2168
2168
2168
2168
2168
2168
2168
21733
2168
2168
21733
21733
25737
2168
21733
25737
2168
2168
2168
2168
2168
2168
